
Gurobi 11.0.2 (win64) logging started Mon Nov 25 18:19:36 2024

Set parameter LogFile to value ".\Experiments\Verification_16_eps0.0001_focus2\Logs\vit_6_1_6_12_i4_r1_c3.log"
Set parameter TimeLimit to value 43200
Gurobi Optimizer version 11.0.2 build v11.0.2rc0 (win64 - Windows 10.0 (19045.2))

CPU model: Intel(R) Core(TM) i7-10750H CPU @ 2.60GHz, instruction set [SSE2|AVX|AVX2]
Thread count: 6 physical cores, 12 logical processors, using up to 12 threads

Optimize a model with 1605 rows, 2535 columns and 5666 nonzeros
Model fingerprint: 0x4d7f46c2
Model has 658 quadratic constraints
Model has 210 general constraints
Variable types: 2385 continuous, 150 integer (150 binary)
Coefficient statistics:
  Matrix range     [1e-03, 1e+02]
  QMatrix range    [1e+00, 1e+00]
  QLMatrix range   [1e+00, 1e+00]
  Objective range  [1e+00, 1e+00]
  Bounds range     [1e-04, 7e+02]
  RHS range        [1e-04, 1e+02]
  QRHS range       [1e-06, 1e-06]
Presolve removed 1214 rows and 1487 columns
Presolve time: 0.02s
Presolved: 2989 rows, 1049 columns, 8908 nonzeros
Presolved model has 533 bilinear constraint(s)
Presolved model has 108 nonlinear constraint(s)

Solving non-convex MINLP

Variable types: 1036 continuous, 13 integer (13 binary)

Root relaxation: objective 5.042493e+01, 1141 iterations, 0.03 seconds (0.04 work units)

    Nodes    |    Current Node    |     Objective Bounds      |     Work
 Expl Unexpl |  Obj  Depth IntInf | Incumbent    BestBd   Gap | It/Node Time

     0     0   50.42493    0  432          -   50.42493      -     -    0s
     0     0   50.42493    0  427          -   50.42493      -     -    0s
     0     0   50.42446    0  414          -   50.42446      -     -    0s
     0     0   50.42446    0  412          -   50.42446      -     -    0s
     0     0   50.42420    0  412          -   50.42420      -     -    0s
     0     0   50.42412    0  414          -   50.42412      -     -    0s
     0     0   50.42412    0  415          -   50.42412      -     -    0s
     0     0   50.42412    0  409          -   50.42412      -     -    0s
     0     0   50.42412    0  416          -   50.42412      -     -    0s
     0     0   -6.93260    0  382          -   -6.93260      -     -    2s
     0     2   -6.93260    0  382          -   -6.93260      -     -    5s
H 2061   959                     -12.4984106  -12.49168  0.05%  34.1    7s
  2066   962  -12.49595   42    0  -12.49841  -12.49168  0.05%  34.0   10s

Cutting planes:
  RLT: 6

Explored 2102 nodes (75864 simplex iterations) in 10.83 seconds (8.84 work units)
Thread count was 12 (of 12 available processors)

Solution count 1: -12.4984 

Optimal solution found (tolerance 1.00e-04)
Best objective -1.249841060257e+01, best bound -1.249755871808e+01, gap 0.0068%
